param n := 2;

param m := 5;

param K := 500;

param a :=
1 	 0.716879
2 	 0.891019
;
 param A :=
[1, *, *]:  1	2	:=
1	-0.945426	-0.348020	
2	0.044102	0.718979	

[2, *, *]:  1	2	:=
1	0.117033	-0.094293	
2	0.380456	0.256618	

[3, *, *]:  1	2	:=
1	-0.419806	0.153512	
2	-0.981303	-0.377112	

[4, *, *]:  1	2	:=
1	0.034535	-0.147050	
2	0.832812	-0.505208	

[5, *, *]:  1	2	:=
1	-0.257412	0.873737	
2	0.863722	0.688660	
;